(set-logic UFLIA)
(declare-fun a () Bool)
(declare-fun b () Bool)
(declare-fun c () Bool)
(declare-fun x () Bool)
(declare-fun y () Bool)
(declare-fun z () Bool)
(assert (= a x))
(assert (= b y))
(assert (not (= (ite a b z) (ite x y z))))
(check-sat)
(exit)
